unsat
(:added-eqs                       10317
 :arith-eq-adapter                191
 :arith-bound-propagations-lp     597
 :arith-conflicts                 903
 :arith-diseq                     4387
 :arith-fixed-eqs                 2045
 :arith-gcd-calls                 96
 :arith-grobner-calls             279
 :arith-grobner-conflicts         6
 :arith-horner-calls              151
 :arith-horner-cross-nested-forms 1186
 :arith-lower                     4365
 :arith-make-feasible             5094
 :arith-max-columns               121
 :arith-max-rows                  59
 :arith-nla-add-bounds            81
 :arith-nla-lemmas                613
 :arith-nla-propagate-bounds      149
 :arith-nla-propagate-eq          2965
 :arith-nra-calls                 500
 :arith-offset-eqs                1302
 :arith-patches                   96
 :arith-patches-success           95
 :arith-upper                     8398
 :binary-propagations             23248
 :cnf-encoding-aux-vars           1
 :conflicts                       799
 :decisions                       20846
 :del-clause                      456
 :elim-unconstrained              16
 :final-checks                    812
 :max-memory                      29.44
 :memory                          18.81
 :minimized-lits                  2395
 :mk-bool-var                     1180
 :mk-clause                       1498
 :mk-clause-binary                506
 :nlsat-conflicts                 918
 :nlsat-decisions                 1592
 :nlsat-propagations              14188
 :nlsat-stages                    1278
 :num-allocs                      1695433153
 :num-checks                      1
 :propagations                    40020
 :restarts                        7
 :rlimit-count                    6820536
 :sat-backjumps                   7088
 :sat-conflicts                   7089
 :sat-decisions                   13330
 :sat-del-clause                  21227
 :sat-elim-bool-vars-res          2584
 :sat-elim-clauses                6814
 :sat-elim-literals               5189
 :sat-minimized-lits              106746
 :sat-mk-clause-2ary              9375
 :sat-mk-clause-3ary              3645
 :sat-mk-clause-nary              28576
 :sat-mk-var                      5511
 :sat-probing-assigned            86
 :sat-propagations-2ary           568328
 :sat-propagations-nary           1051585
 :sat-restarts                    512
 :sat-scc-elim-binary             47
 :sat-scc-elim-vars               59
 :sat-subs-resolution             219
 :sat-subs-resolution-dyn         3366
 :sat-subsumed                    2686
 :sat-units                       1467
 :solve-eqs-elim-vars             20
 :solve-eqs-steps                 105
 :time                            2.43
 :total-time                      2.44)
